data;


param d:= 100;
param r:=5;
param p:=0.600000;
param M:=1000;
param U:=
         1         1       -9.505720e-01
         2         1        8.341854e-01
         3         1        1.036200e+00
         4         1       -1.586464e-01
         5         1       -2.501092e-01
         6         1       -1.470268e-01
         7         1       -7.606579e-01
         8         1       -4.164899e-01
         9         1       -8.517906e-01
        10         1        1.873986e+00
        11         1       -6.640692e-01
        12         1        1.481548e-02
        13         1       -1.147407e+00
        14         1       -8.086077e-01
        15         1       -1.244160e-01
        16         1        1.036374e+00
        17         1       -1.582089e-01
        18         1       -4.801041e-02
        19         1       -1.650154e+00
        20         1       -4.198605e-02
        21         1        2.827560e-01
        22         1       -2.752052e+00
        23         1        8.693507e-01
        24         1        8.744222e-01
        25         1       -9.570797e-02
        26         1       -1.585516e+00
        27         1       -1.404644e+00
        28         1       -3.610319e-01
        29         1       -5.213081e-01
        30         1        4.258764e-01
        31         1        1.956601e+00
        32         1        3.290683e-01
        33         1        1.471127e+00
        34         1       -2.565720e-01
        35         1       -1.329663e+00
        36         1        2.292256e+00
        37         1        9.426708e-01
        38         1       -5.560935e-01
        39         1        3.194308e-01
        40         1        7.030132e-02
        41         1        3.797684e-01
        42         1       -1.079356e-01
        43         1        3.971054e-01
        44         1        8.601002e-01
        45         1        1.840332e+00
        46         1       -7.165549e-01
        47         1        1.628057e-01
        48         1       -5.209723e-01
        49         1       -3.581660e-01
        50         1        1.148147e+00
        51         1       -1.502877e-02
        52         1       -5.377054e-02
        53         1       -6.642894e-01
        54         1        5.101085e-01
        55         1       -6.454580e-01
        56         1        1.213878e+00
        57         1        6.026043e-01
        58         1       -6.151427e-01
        59         1       -3.183302e-01
        60         1        3.953267e-01
        61         1        1.742586e+00
        62         1        5.590391e-01
        63         1        1.576480e-01
        64         1       -1.436965e+00
        65         1        8.127096e-01
        66         1       -2.227270e-01
        67         1        1.032719e+00
        68         1       -1.018647e-02
        69         1        2.321454e-01
        70         1       -4.403243e-01
        71         1       -1.207733e-01
        72         1        1.891713e-01
        73         1       -5.858399e-01
        74         1        6.083035e-01
        75         1        5.065878e-01
        76         1       -5.068775e-01
        77         1        1.847802e+00
        78         1       -1.040426e+00
        79         1        8.167235e-01
        80         1       -1.088420e-01
        81         1       -4.240468e-01
        82         1        1.375483e+00
        83         1        1.026105e+00
        84         1        3.805468e-02
        85         1       -6.264051e-01
        86         1       -1.673581e-01
        87         1        1.151944e+00
        88         1       -2.142776e+00
        89         1       -2.281575e-02
        90         1       -2.245194e-01
        91         1        7.958745e-01
        92         1        2.236079e-01
        93         1        4.154185e-02
        94         1       -2.143704e-01
        95         1        3.331093e-02
        96         1       -2.442098e-01
        97         1        1.858459e+00
        98         1       -1.248030e-02
        99         1        2.711948e-01
       100         1       -7.921437e-01
         1         2       -1.751700e-01
         2         2        6.680630e-01
         3         2        1.618057e-01
         4         2       -1.363957e+00
         5         2        1.271751e+00
         6         2        3.829184e-01
         7         2        7.127935e-01
         8         2        7.568723e-01
         9         2       -6.165382e-01
        10         2        8.623936e-01
        11         2        8.701824e-01
        12         2        7.629728e-02
        13         2        8.016272e-02
        14         2        7.243656e-01
        15         2       -8.087112e-01
        16         2        1.203589e-01
        17         2       -2.293069e+00
        18         2        6.845453e-01
        19         2        6.300908e-01
        20         2        3.863858e-01
        21         2        1.592282e+00
        22         2       -1.599657e+00
        23         2        1.243530e+00
        24         2       -3.806062e-01
        25         2        4.342322e-01
        26         2        1.415993e+00
        27         2       -2.562326e-01
        28         2        1.123219e+00
        29         2        1.031906e+00
        30         2        1.050051e+00
        31         2       -1.775650e+00
        32         2        8.937180e-01
        33         2        4.383070e-01
        34         2        4.921747e-01
        35         2        4.529719e-01
        36         2        8.228954e-01
        37         2       -7.387039e-01
        38         2        2.856089e-01
        39         2       -3.766938e-01
        40         2        6.824129e-01
        41         2        1.740011e-01
        42         2        2.765232e-01
        43         2       -2.013516e+00
        44         2       -2.319363e-01
        45         2        5.109650e-01
        46         2        3.559600e-01
        47         2       -3.531853e-01
        48         2        9.930945e-01
        49         2        1.958770e-01
        50         2       -4.570468e-01
        51         2       -6.661578e-01
        52         2       -7.972521e-01
        53         2        2.788640e-02
        54         2        6.005274e-01
        55         2        2.147591e+00
        56         2        6.239484e-02
        57         2       -4.301512e-01
        58         2       -7.546191e-01
        59         2        5.797625e-01
        60         2        1.337233e+00
        61         2        8.176640e-01
        62         2        9.846676e-01
        63         2       -7.888719e-01
        64         2       -1.681672e+00
        65         2       -8.795973e-01
        66         2        4.028071e-03
        67         2        1.250538e+00
        68         2       -2.529503e-01
        69         2       -5.955855e-01
        70         2       -1.886196e-01
        71         2        2.355549e-01
        72         2        3.559544e-01
        73         2        7.982113e-01
        74         2       -1.588096e+00
        75         2        4.800250e-01
        76         2        3.821756e-01
        77         2       -1.903391e+00
        78         2        3.114953e-01
        79         2       -1.635642e+00
        80         2        6.244022e-01
        81         2       -3.530999e-01
        82         2        1.146450e+00
        83         2       -2.422883e-03
        84         2        6.031898e-01
        85         2       -5.931938e-01
        86         2       -5.020987e-01
        87         2        3.227843e-01
        88         2       -2.764384e-01
        89         2       -1.203096e+00
        90         2        7.419338e-01
        91         2       -2.593453e+00
        92         2       -1.024139e+00
        93         2        1.182896e+00
        94         2        1.315299e+00
        95         2        1.149701e+00
        96         2       -6.346066e-01
        97         2       -5.623293e-01
        98         2       -1.509870e+00
        99         2        9.611073e-01
       100         2        1.851237e+00
         1         3        7.138503e-01
         2         3       -7.740265e-01
         3         3        4.162500e-01
         4         3        1.854562e-01
         5         3       -1.727059e+00
         6         3        9.387935e-01
         7         3        2.960830e-01
         8         3       -3.645773e-01
         9         3        1.682924e+00
        10         3       -7.180715e-02
        11         3        6.302133e-01
        12         3       -7.456348e-01
        13         3       -7.674090e-01
        14         3       -1.397408e+00
        15         3       -5.399185e-01
        16         3        4.218324e-01
        17         3       -4.295139e-02
        18         3        2.109211e-01
        19         3        9.404122e-01
        20         3       -2.164101e-01
        21         3        6.445519e-01
        22         3        9.571477e-01
        23         3       -1.480580e-01
        24         3        1.284762e+00
        25         3       -7.176627e-01
        26         3       -4.370688e-02
        27         3       -9.334562e-01
        28         3       -2.354351e-01
        29         3        9.199006e-01
        30         3       -2.024553e+00
        31         3       -1.356106e+00
        32         3        7.792979e-01
        33         3        5.204928e-02
        34         3       -4.634556e-01
        35         3       -1.206293e+00
        36         3       -1.322820e+00
        37         3        1.327980e+00
        38         3       -3.979712e-01
        39         3       -4.217471e-02
        40         3       -1.081712e+00
        41         3        3.861799e-01
        42         3       -1.986058e+00
        43         3       -8.733357e-01
        44         3       -5.889477e-01
        45         3       -2.494836e-01
        46         3       -1.277197e+00
        47         3       -1.768102e+00
        48         3        7.277646e-01
        49         3       -1.322861e+00
        50         3        4.759491e-01
        51         3        1.549255e+00
        52         3       -9.672011e-01
        53         3        2.423054e+00
        54         3        1.037740e+00
        55         3        1.287658e+00
        56         3        4.824154e-01
        57         3       -6.152380e-01
        58         3       -8.115265e-01
        59         3       -1.544331e-01
        60         3       -6.834296e-01
        61         3       -5.535373e-01
        62         3        1.058857e+00
        63         3        1.042743e+00
        64         3       -4.172825e-01
        65         3       -1.461963e+00
        66         3        4.022122e-01
        67         3       -5.846447e-02
        68         3       -7.425552e-01
        69         3       -6.252562e-01
        70         3        3.800590e-01
        71         3       -1.318002e+00
        72         3       -3.922176e-01
        73         3       -6.522897e-01
        74         3        1.527728e+00
        75         3        8.712326e-01
        76         3       -1.416324e+00
        77         3       -3.230179e-01
        78         3       -6.480412e-01
        79         3        1.209448e+00
        80         3       -1.302133e-01
        81         3       -5.088538e-01
        82         3        1.656997e+00
        83         3       -1.249682e+00
        84         3       -1.174419e+00
        85         3       -1.361007e-01
        86         3        5.990245e-01
        87         3        2.344605e-01
        88         3       -4.118872e-01
        89         3       -1.474842e+00
        90         3        1.270083e+00
        91         3       -1.272839e+00
        92         3        1.080111e+00
        93         3       -4.775323e-01
        94         3       -2.030973e+00
        95         3        1.022711e+00
        96         3       -1.337692e+00
        97         3       -4.847560e-01
        98         3        2.625583e+00
        99         3       -8.018679e-02
       100         3       -5.925143e-01
         1         4       -2.427418e+00
         2         4       -1.203634e+00
         3         4       -5.950244e-01
         4         4       -9.311846e-01
         5         4       -8.861282e-01
         6         4        2.096829e-01
         7         4       -4.151870e-01
         8         4       -5.287323e-02
         9         4        7.788786e-01
        10         4        1.034379e+00
        11         4       -1.757050e+00
        12         4        3.252254e-01
        13         4       -1.505836e+00
        14         4       -4.501462e-01
        15         4       -4.075349e-01
        16         4       -1.984329e+00
        17         4       -1.128537e+00
        18         4       -5.543003e-01
        19         4        4.035580e-01
        20         4        6.340880e-01
        21         4        1.166932e+00
        22         4        1.384520e+00
        23         4       -9.386534e-01
        24         4       -5.668340e-01
        25         4        1.695837e+00
        26         4        6.707573e-01
        27         4        3.500798e-01
        28         4       -3.214174e-01
        29         4       -7.432558e-01
        30         4       -5.296295e-01
        31         4        5.908954e-01
        32         4        9.782345e-01
        33         4       -5.583343e-01
        34         4        1.418807e+00
        35         4       -9.141034e-01
        36         4       -1.299032e+00
        37         4        1.110014e+00
        38         4       -8.621186e-02
        39         4       -9.030384e-01
        40         4       -1.268781e+00
        41         4        2.142611e-01
        42         4        1.288011e+00
        43         4        7.225099e-01
        44         4        5.644259e-01
        45         4        5.126220e-01
        46         4       -5.726445e-01
        47         4       -3.307877e-01
        48         4        2.448953e-01
        49         4        1.214879e+00
        50         4        1.203598e+00
        51         4        7.599514e-01
        52         4        4.188258e-01
        53         4        6.206643e-01
        54         4       -4.320331e-01
        55         4        5.824560e-01
        56         4        2.658423e-03
        57         4       -2.337044e+00
        58         4        1.892397e+00
        59         4       -4.552495e-01
        60         4       -9.724364e-01
        61         4        1.942664e-02
        62         4        1.563125e-01
        63         4       -1.453469e-01
        64         4       -1.175260e+00
        65         4       -1.304383e+00
        66         4       -5.814939e-01
        67         4        6.591506e-01
        68         4       -3.131498e-01
        69         4       -6.589869e-01
        70         4       -9.390992e-01
        71         4        3.312364e-01
        72         4        1.067806e-01
        73         4       -1.175616e-01
        74         4        1.522019e+00
        75         4       -2.940932e-01
        76         4        1.410612e-03
        77         4       -1.738123e+00
        78         4        3.330425e-01
        79         4       -9.216322e-01
        80         4       -3.037031e-01
        81         4       -1.174191e+00
        82         4        2.821882e+00
        83         4        3.822896e-01
        84         4       -7.602873e-02
        85         4       -2.677363e+00
        86         4        1.338612e-01
        87         4       -9.210082e-02
        88         4        1.124143e+00
        89         4        8.261547e-01
        90         4       -3.954979e-01
        91         4       -9.225359e-01
        92         4        7.390164e-01
        93         4        8.256721e-01
        94         4       -8.538400e-03
        95         4        1.175394e+00
        96         4        6.173476e-01
        97         4        6.672763e-01
        98         4        1.455940e-01
        99         4       -6.693249e-02
       100         4       -4.628459e-01
         1         5        1.106419e+00
         2         5       -9.971700e-01
         3         5        2.888886e+00
         4         5       -7.711881e-01
         5         5       -1.570783e+00
         6         5       -6.164976e-01
         7         5       -1.798750e-01
         8         5        1.532057e-01
         9         5        2.417615e+00
        10         5       -5.057034e-03
        11         5        1.227273e+00
        12         5        4.325908e-01
        13         5        1.222058e+00
        14         5       -1.219193e-01
        15         5       -1.132793e+00
        16         5        6.586827e-01
        17         5        6.350122e-01
        18         5        9.413958e-01
        19         5       -1.371391e+00
        20         5       -1.814880e+00
        21         5       -1.042337e+00
        22         5       -5.285939e-01
        23         5        1.454649e+00
        24         5       -8.617544e-01
        25         5        6.238992e-01
        26         5        5.204545e-01
        27         5        2.714198e+00
        28         5       -1.885645e-01
        29         5        4.665216e-02
        30         5        5.754896e-01
        31         5       -2.379659e-01
        32         5       -1.157638e+00
        33         5       -4.470409e-01
        34         5       -4.084179e-01
        35         5       -3.130938e-01
        36         5       -8.768381e-01
        37         5        3.435237e-01
        38         5       -4.992686e-01
        39         5       -2.358638e+00
        40         5       -2.484008e+00
        41         5        5.093023e-01
        42         5        4.141889e-01
        43         5        9.843245e-02
        44         5       -2.547709e-01
        45         5        1.244874e+00
        46         5        1.697709e-02
        47         5        2.390470e-01
        48         5       -1.911360e-01
        49         5        1.242627e+00
        50         5        3.932017e-01
        51         5        1.455083e-01
        52         5       -4.364345e-01
        53         5        7.143531e-01
        54         5       -7.904371e-01
        55         5        1.004613e-01
        56         5       -8.292016e-01
        57         5        2.647737e-01
        58         5       -1.310211e+00
        59         5       -4.033369e-01
        60         5        7.268469e-02
        61         5        1.399075e+00
        62         5       -8.289218e-01
        63         5        1.373248e+00
        64         5        4.446094e-02
        65         5       -1.469571e+00
        66         5        2.366056e-01
        67         5       -1.393529e+00
        68         5       -1.604444e-02
        69         5        2.588519e-01
        70         5       -3.240781e-01
        71         5       -8.957226e-01
        72         5       -1.053961e-01
        73         5       -5.340239e-01
        74         5        3.494361e-01
        75         5        1.402245e+00
        76         5       -1.181072e+00
        77         5       -5.102075e-01
        78         5       -7.417031e-01
        79         5        1.158179e+00
        80         5       -2.964893e-01
        81         5        6.744081e-01
        82         5        3.656725e-01
        83         5       -6.369286e-02
        84         5       -4.785399e-02
        85         5        2.812750e-01
        86         5       -2.639061e+00
        87         5       -5.243264e-01
        88         5        7.588687e-01
        89         5       -3.611538e-01
        90         5       -1.140470e-02
        91         5       -3.392561e-01
        92         5       -1.744731e+00
        93         5        6.053205e-01
        94         5       -1.374230e+00
        95         5       -4.383036e-01
        96         5       -1.676703e+00
        97         5        1.708672e+00
        98         5        1.411029e+00
        99         5       -7.244256e-01
       100         5       -5.582613e-01
;

param theta:=
    1       -1.929516e-01
    2       -1.672305e+00
    3        2.556118e-01
    4       -7.802405e-02
    5       -1.413377e-01
;
param X_true:=
    1        8.198831e-01
    2       -1.305091e+00
    3       -6.901144e-01
    4        2.504504e+00
    5       -2.280163e+00
    6       -3.309908e-01
    7       -9.605191e-01
    8       -1.311718e+00
    9        1.218356e+00
   10       -1.928814e+00
   11       -1.228605e+00
   12       -3.136632e-01
   13       -2.992657e-02
   14       -1.317238e+00
   15        1.461514e+00
   16       -2.841794e-01
   17        3.638827e+00
   18       -1.095396e+00
   19       -4.498161e-01
   20       -5.540033e-01
   21       -2.462255e+00
   22        3.488396e+00
   23       -2.514634e+00
   24        9.615549e-01
   25       -1.163313e+00
   26       -2.191967e+00
   27        8.361382e-02
   28       -1.834087e+00
   29       -1.165475e+00
   30       -2.502276e+00
   31        2.174147e+00
   32       -1.304993e+00
   33       -1.053273e+00
   34       -9.292288e-01
   35       -8.049679e-01
   36       -1.940474e+00
   37        1.374582e+00
   38       -4.043213e-01
   39        9.439762e-01
   40       -9.747725e-01
   41       -4.281270e-01
   42       -1.188457e+00
   43        2.992585e+00
   44        9.624702e-02
   45       -1.394721e+00
   46       -5.751292e-01
   47        1.081671e-01
   48       -1.268197e+00
   49       -9.269352e-01
   50        3.506794e-01
   51        1.518503e+00
   52        1.134297e+00
   53        5.288146e-01
   54       -6.315895e-01
   55       -3.191848e+00
   56       -1.478204e-01
   57        6.126520e-01
   58        1.038778e+00
   59       -8.133782e-01
   60       -2.489638e+00
   61       -2.153422e+00
   62       -1.482548e+00
   63        1.430459e+00
   64        3.076550e+00
   65        1.285586e+00
   66        5.041195e-02
   67       -2.262467e+00
   68        2.953014e-01
   69        9.205521e-01
   70        5.805051e-01
   71       -5.838724e-01
   72       -6.386441e-01
   73       -1.308839e+00
   74        2.695604e+00
   75       -6.987529e-01
   76       -7.185054e-01
   77        3.138189e+00
   78       -2.825239e-01
   79        2.769968e+00
   80       -9.954702e-01
   81        5.451640e-01
   82       -1.758665e+00
   83       -4.574351e-01
   84       -1.372195e+00
   85        1.335555e+00
   86        1.488857e+00
   87       -5.381295e-01
   88        6.370972e-01
   89        1.691808e+00
   90       -8.527686e-01
   91        3.978519e+00
   92        2.001119e+00
   93       -2.308193e+00
   94       -2.561995e+00
   95       -1.689011e+00
   96        8.475016e-01
   97        1.363378e-01
   98        3.228236e+00
   99       -1.587930e+00
  100       -3.110005e+00
;
param X:=
    1        8.198831e-01
    2       -1.305091e+00
    3       -6.901144e-01
    4       -2.009469e-01
    5       -1.313465e+00
    6        7.814009e-01
    7       -9.605191e-01
    8       -1.311718e+00
    9        1.218356e+00
   10       -1.155753e+00
   11       -1.228605e+00
   12       -1.214593e+00
   13        5.500955e-01
   14       -1.317238e+00
   15       -1.702185e+00
   16        6.849343e-01
   17        8.261574e-01
   18       -1.095396e+00
   19        1.936760e+00
   20        3.027857e-01
   21       -4.337722e-01
   22        3.488396e+00
   23       -2.514634e+00
   24        9.615549e-01
   25       -1.577696e+00
   26       -2.191967e+00
   27       -2.486357e-01
   28        1.895951e+00
   29       -1.165475e+00
   30        6.068774e-01
   31        6.605215e-01
   32       -1.304993e+00
   33        6.279517e-01
   34       -1.364662e+00
   35       -6.872346e-01
   36       -1.940474e+00
   37        1.374582e+00
   38        5.823479e-01
   39        6.617121e-01
   40       -9.747725e-01
   41       -4.281270e-01
   42        5.751249e-01
   43       -1.082836e+00
   44        9.624702e-02
   45       -1.394721e+00
   46        9.883624e-01
   47        8.128968e-01
   48        6.024622e-02
   49       -9.269352e-01
   50        3.506794e-01
   51        7.070171e-01
   52        1.259770e+00
   53        5.288146e-01
   54       -1.091134e-01
   55       -3.191848e+00
   56       -2.567482e-01
   57        6.126520e-01
   58       -1.889996e+00
   59        1.107745e+00
   60        2.704221e-01
   61       -7.133330e-01
   62        8.494668e-01
   63        7.411284e-01
   64        3.076550e+00
   65        1.285586e+00
   66        5.041195e-02
   67       -2.262467e+00
   68       -3.031893e-01
   69        2.294646e-01
   70       -6.253132e-01
   71        1.463398e+00
   72       -1.537388e-01
   73       -1.308839e+00
   74        6.607506e-01
   75       -6.987529e-01
   76       -1.017598e+00
   77        1.388025e+00
   78       -4.713708e-01
   79        2.769968e+00
   80       -9.954702e-01
   81        1.385965e+00
   82       -1.758665e+00
   83        6.160405e-01
   84       -1.372195e+00
   85        1.335555e+00
   86       -5.046153e-01
   87        1.796382e+00
   88        8.294686e-01
   89        1.827984e-01
   90       -8.527686e-01
   91        3.062864e-01
   92       -3.118995e-01
   93        7.406407e-01
   94        3.712282e-01
   95        1.122229e+00
   96        8.475016e-01
   97        1.363378e-01
   98       -4.010215e-01
   99       -3.456484e-01
  100        2.311907e+00
;
param outliervec:=
    1    0
    2    0
    3    0
    4    1
    5    1
    6    1
    7    0
    8    0
    9    0
   10    1
   11    0
   12    1
   13    1
   14    0
   15    1
   16    1
   17    1
   18    0
   19    1
   20    1
   21    1
   22    0
   23    0
   24    0
   25    1
   26    0
   27    1
   28    1
   29    0
   30    1
   31    1
   32    0
   33    1
   34    1
   35    1
   36    0
   37    0
   38    1
   39    1
   40    0
   41    0
   42    1
   43    1
   44    0
   45    0
   46    1
   47    1
   48    1
   49    0
   50    0
   51    1
   52    1
   53    0
   54    1
   55    0
   56    1
   57    0
   58    1
   59    1
   60    1
   61    1
   62    1
   63    1
   64    0
   65    0
   66    0
   67    0
   68    1
   69    1
   70    1
   71    1
   72    1
   73    0
   74    1
   75    0
   76    1
   77    1
   78    1
   79    0
   80    0
   81    1
   82    0
   83    1
   84    0
   85    0
   86    1
   87    1
   88    1
   89    1
   90    0
   91    1
   92    1
   93    1
   94    1
   95    1
   96    0
   97    0
   98    1
   99    1
  100    1
;